40
387
20
0 3
0 9
0 12
0 13
0 15
0 16
0 17
0 18
0 19
0 20
0 21
0 23
0 26
0 30
0 32
0 34
0 35
0 37
1 3
1 4
1 5
1 6
1 7
1 8
1 10
1 11
1 12
1 13
1 14
1 16
1 18
1 20
1 21
1 22
1 25
1 28
1 30
1 33
1 35
1 37
1 38
1 39
2 3
2 4
2 5
2 7
2 8
2 11
2 13
2 16
2 18
2 21
2 22
2 25
2 26
2 29
2 30
2 36
2 37
2 39
3 4
3 5
3 6
3 8
3 11
3 13
3 14
3 24
3 25
3 26
3 27
3 29
3 30
3 33
3 36
3 38
3 39
4 7
4 8
4 9
4 10
4 12
4 17
4 19
4 22
4 23
4 24
4 26
4 28
4 30
4 32
4 33
4 34
4 36
4 37
4 38
4 39
5 9
5 12
5 14
5 17
5 18
5 20
5 21
5 24
5 25
5 26
5 30
5 31
5 32
5 35
5 37
5 39
6 8
6 9
6 10
6 13
6 14
6 16
6 17
6 19
6 20
6 21
6 22
6 27
6 28
6 30
6 31
6 33
6 38
7 10
7 12
7 13
7 14
7 15
7 16
7 18
7 20
7 22
7 23
7 26
7 28
7 32
7 33
7 34
7 38
7 39
8 12
8 13
8 16
8 21
8 22
8 23
8 26
8 27
8 28
8 29
8 30
8 33
8 38
8 39
9 11
9 12
9 13
9 14
9 15
9 18
9 19
9 22
9 26
9 28
9 29
9 34
9 38
10 11
10 12
10 13
10 18
10 20
10 21
10 22
10 24
10 26
10 27
10 29
10 33
10 34
10 37
10 38
11 16
11 17
11 19
11 20
11 21
11 26
11 28
11 29
11 31
11 32
11 34
11 35
11 38
11 39
12 14
12 15
12 17
12 19
12 23
12 26
12 30
12 31
12 32
12 38
12 39
13 19
13 21
13 22
13 24
13 25
13 30
13 31
13 33
13 34
13 35
14 15
14 17
14 22
14 23
14 24
14 25
14 27
14 28
14 30
14 36
14 38
15 17
15 18
15 19
15 20
15 21
15 23
15 24
15 26
15 27
15 30
15 31
15 34
15 35
15 38
15 39
16 17
16 18
16 20
16 24
16 28
16 37
16 39
17 20
17 22
17 23
17 24
17 25
17 29
17 32
17 33
17 34
17 36
17 37
17 39
18 22
18 25
18 26
18 28
18 30
18 31
18 32
18 33
18 34
18 35
18 36
19 20
19 23
19 28
19 29
19 30
19 32
19 33
19 34
19 35
19 36
19 37
19 39
20 22
20 23
20 25
20 27
20 28
20 30
20 32
20 35
20 36
20 39
21 23
21 25
21 27
21 28
21 31
21 33
21 35
21 37
21 38
21 39
22 24
22 29
22 32
22 33
22 34
22 35
22 36
22 37
22 38
22 39
23 26
23 27
23 29
23 30
23 32
23 33
23 35
23 38
24 27
24 29
24 31
24 32
24 33
24 35
24 36
25 27
25 34
25 35
25 36
25 38
26 30
26 32
26 33
26 34
26 35
26 36
26 37
26 38
27 28
27 29
27 30
27 36
28 29
28 30
28 32
28 33
28 34
28 39
29 30
29 32
29 38
30 34
30 35
30 37
31 34
31 35
31 37
31 38
31 39
32 33
32 34
32 35
32 36
33 34
33 35
33 36
33 37
33 38
34 36
34 37
35 36
35 37
36 37
36 38
37 38
11 23
4 17
28 29
13 30
2 24
5 14
21 34
10 25
19 38
12 33
1 18
3 15
20 27
32 39
16 35
31 37
0 26
9 22
6 7
8 36
